
Gurobi 10.0.1 (linux64) logging started Sun Nov 26 15:49:42 2023

Set parameter LogFile to value "ArtificialInstance/ExperimentV2/S3T5K1/BaSp/gurobi91.txt"
Gurobi Optimizer version 10.0.1 build v10.0.1rc0 (linux64)

CPU model: AMD EPYC 7H12 64-Core Processor, instruction set [SSE2|AVX|AVX2]
Thread count: 128 physical cores, 128 logical processors, using up to 32 threads

Academic license 656792 - for non-commercial use only - registered to b.___@student.vu.nl
Optimize a model with 1920 rows, 2880 columns and 9440 nonzeros
Model fingerprint: 0x49010887
Variable types: 0 continuous, 2880 integer (2880 binary)
Coefficient statistics:
  Matrix range     [1e+00, 1e+00]
  Objective range  [1e+00, 2e+01]
  Bounds range     [1e+00, 1e+00]
  RHS range        [1e+00, 1e+00]
Found heuristic solution: objective 641.0328958
Presolve time: 0.01s
Presolved: 1920 rows, 2880 columns, 9440 nonzeros
Variable types: 0 continuous, 2880 integer (2880 binary)

Root relaxation: objective 4.093314e+01, 1291 iterations, 0.02 seconds (0.02 work units)

    Nodes    |    Current Node    |     Objective Bounds      |     Work
 Expl Unexpl |  Obj  Depth IntInf | Incumbent    BestBd   Gap | It/Node Time

     0     0   40.93314    0  270  641.03290   40.93314  93.6%     -    0s
H    0     0                     149.7906147   40.93314  72.7%     -    0s
H    0     0                      69.8342157   40.93314  41.4%     -    0s
     0     0   45.01026    0  325   69.83422   45.01026  35.5%     -    0s
H    0     0                      59.6394699   45.01026  24.5%     -    0s
H    0     0                      55.0845709   48.17356  12.5%     -    0s
     0     0   48.17356    0  258   55.08457   48.17356  12.5%     -    0s
     0     0   49.21571    0  349   55.08457   49.21571  10.7%     -    0s
     0     0   49.80184    0  459   55.08457   49.80184  9.59%     -    0s
     0     0   49.84442    0  459   55.08457   49.84442  9.51%     -    0s
     0     0   49.84442    0  463   55.08457   49.84442  9.51%     -    0s
     0     0   51.35918    0  516   55.08457   51.35918  6.76%     -    0s
     0     0   51.40350    0  502   55.08457   51.40350  6.68%     -    0s
     0     0   51.40600    0  510   55.08457   51.40600  6.68%     -    0s
     0     0   51.76106    0  520   55.08457   51.76106  6.03%     -    0s
     0     0   51.76106    0  259   55.08457   51.76106  6.03%     -    0s
     0     0   51.76106    0  334   55.08457   51.76106  6.03%     -    0s
     0     0   51.76106    0  380   55.08457   51.76106  6.03%     -    0s
     0     0   51.76106    0  467   55.08457   51.76106  6.03%     -    0s
     0     0   51.76106    0  511   55.08457   51.76106  6.03%     -    0s
     0     0   51.83743    0  493   55.08457   51.83743  5.89%     -    0s
     0     0   51.83743    0  490   55.08457   51.83743  5.89%     -    0s
     0     0   52.29212    0  496   55.08457   52.29212  5.07%     -    0s
     0     0   52.41802    0  466   55.08457   52.41802  4.84%     -    0s
     0     0   53.88104    0  584   55.08457   53.88104  2.18%     -    0s
     0     0   53.88104    0  489   55.08457   53.88104  2.18%     -    0s
     0     0   55.08457    0  574   55.08457   55.08457  0.00%     -    0s

Cutting planes:
  Gomory: 5
  Clique: 1
  Zero half: 49
  RLT: 22

Explored 1 nodes (8156 simplex iterations) in 0.92 seconds (0.49 work units)
Thread count was 32 (of 128 available processors)

Solution count 5: 55.0846 59.6395 69.8342 ... 641.033

Optimal solution found (tolerance 1.00e-04)
Best objective 5.508457089434e+01, best bound 5.508457089434e+01, gap 0.0000%
